GLPSOL--GLPK LP/MIP Solver 5.0
Parameter(s) specified in the command line:
 --lp ../modeles/20_184.lp --log 20_184.log
Reading problem data from '../modeles/20_184.lp'...
3761 rows, 7400 columns, 25820 non-zeros
3680 integer variables, all of which are binary
11187 lines were read
GLPK Integer Optimizer 5.0
3761 rows, 7400 columns, 25820 non-zeros
3680 integer variables, all of which are binary
Preprocessing...
3640 constraint coefficient(s) were reduced
3761 rows, 7380 columns, 25800 non-zeros
3680 integer variables, all of which are binary
Scaling...
 A: min|aij| =  4.726e-04  max|aij| =  4.000e+00  ratio =  8.464e+03
GM: min|aij| =  1.043e-01  max|aij| =  9.592e+00  ratio =  9.200e+01
EQ: min|aij| =  1.087e-02  max|aij| =  1.000e+00  ratio =  9.200e+01
2N: min|aij| =  7.561e-03  max|aij| =  1.727e+00  ratio =  2.284e+02
Constructing initial basis...
Size of triangular part is 3761
Solving LP relaxation...
GLPK Simplex Optimizer 5.0
3761 rows, 7380 columns, 25800 non-zeros
      0: obj =   4.000000000e+01 inf =   9.950e+01 (41)
Perturbing LP to avoid stalling [199]...
    259: obj =  -1.558825267e-01 inf =   0.000e+00 (0)
Removing LP perturbation [968]...
*   968: obj =  -4.467908903e+00 inf =   1.170e-14 (0) 1
OPTIMAL LP SOLUTION FOUND
Integer optimization begins...
Long-step dual simplex will be used
+   968: mip =     not found yet >=              -inf        (1; 0)
+  1199: >>>>>  -4.467908903e+00 >=  -4.467908903e+00 < 0.1% (222; 0)
+  1199: mip =  -4.467908903e+00 >=     tree is empty   0.0% (0; 443)
INTEGER OPTIMAL SOLUTION FOUND
Time used:   2.0 secs
Memory used: 10.8 Mb (11374680 bytes)
